1111100 AB
315 345 375 393 411 429 448 467 486 512 538 564 590 616 647 678 709 740 771 802 832 857 882 907 932 957 982 1007 1032 1057 1082 1107 1133 1159 1193 1227 1257 1287 1317 1347 1377 1407 1437 285
1111100 BA
330 360 390 420 447 470 489 508 527 546 572 597 624 650 676 707 738 769 800 831 862 892 917 942 967 992 1017 1042 1067 1092 1117 1142 1167 1193 1219 1253 1278 1302 1332 1362 1392 1422 12 42
0000011 AB
317 348 380 412 444 477 498 519 540 562 584 606 628 650 672 694 716 738 760 782 804 826 848 870 892 914 936 958 980 1002 1024 1046 1068 1090 1112 1134 1156 1178 1200 1222 1244 1267 1290 1313 1347 1381 1415 285
0000011 BA
330 362 393 425 465 497 530 551 572 593 615 637 659 681 703 725 747 769 791 813 835 857 879 901 923 945 967 989 1011 1033 1055 1077 1099 1121 1143 1165 1187 1209 1231 1253 1273 1290 1312 1335 1358 1392 1426 20
